p cnf 52 107
c x0 -> 16
c x1 -> 37
c x3 -> 52
c x4 -> 34
c x6 -> 43
2 3 -1 0
-2 -3 -1 0
2 -3 1 0
-2 3 1 0
4 2 0
-4 -2 0
5 3 0
-5 -3 0
6 -4 0
7 -4 0
-6 -7 4 0
8 -5 0
9 -5 0
-8 -9 5 0
10 6 0
-10 -6 0
11 -7 0
12 -7 0
-11 -12 7 0
13 8 0
-13 -8 0
14 -9 0
15 -9 0
-14 -15 9 0
16 -10 0
17 -10 0
-16 -17 10 0
18 11 0
-18 -11 0
19 12 0
-19 -12 0
16 -13 0
21 -13 0
-16 -21 13 0
22 14 0
-22 -14 0
23 15 0
-23 -15 0
24 17 0
-24 -17 0
25 -18 0
26 -18 0
-25 -26 18 0
27 -19 0
28 -19 0
-27 -28 19 0
29 21 0
-29 -21 0
30 -22 0
31 -22 0
-30 -31 22 0
32 -23 0
33 -23 0
-32 -33 23 0
34 -24 0
35 -24 0
-34 -35 24 0
16 25 0
-16 -25 0
36 26 0
-36 -26 0
37 27 0
-37 -27 0
34 28 0
-34 -28 0
34 -29 0
39 -29 0
-34 -39 29 0
16 30 0
-16 -30 0
40 31 0
-40 -31 0
37 32 0
-37 -32 0
34 33 0
-34 -33 0
42 35 0
-42 -35 0
43 -36 0
44 -36 0
-43 -44 36 0
45 39 0
-45 -39 0
43 -40 0
47 -40 0
-43 -47 40 0
27 -42 0
48 -42 0
-27 -48 42 0
49 44 0
-49 -44 0
32 -45 0
50 -45 0
-32 -50 45 0
51 47 0
-51 -47 0
52 48 0
-52 -48 0
37 -49 0
34 -49 0
-37 -34 49 0
52 50 0
-52 -50 0
37 -51 0
34 -51 0
-37 -34 51 0
1 0
